50

100 19 217
97 49 192
95 9 189
95 28 228
95 37 420
95 6 288
94 5 394
93 1 210
93 25 378
91 31 258
90 25 371
89 33 479
87 18 421
83 24 308
82 2 491
79 13 458
79 13 456
78 5 492
77 2 225
77 10 384
74 7 333
71 1 239
69 3 469
68 4 491
68 1 296
65 18 220
65 6 488
64 24 326
61 17 471
58 21 415
55 6 215
55 23 305
54 21 441
53 9 495
53 18 325
51 16 430
51 20 422
49 19 247
46 9 278
44 12 233
42 13 267
41 15 409
39 17 379
38 6 461
37 4 344
37 2 354
37 17 248
35 4 239
33 11 448
31 3 295
